Traveling Salesman Problem/TSP_generados/Aleatorio1621103494_15.tsp
NAME: Aleatorio1621103494_15.tsp
COMMENT: Randomly generated scenario
TYPE: TSP
DIMENSION: 15
EDGE_WEIGHT_TYPE: ATT
NODE_COORD_SECTION
1 2.16 17.42
2 40.12 46.27
3 9.84 40.65
4 3.91 6.21
5 24.34 21.15
6 20.01 39.22
7 32.91 49.81
8 3.52 20.94
9 0.52 23.67
10 7.27 11.96
11 8.58 15.86
12 3.36 45.55
13 9.15 5.26
14 19.73 32.37
15 45.69 2.37
