Traveling Salesman Problem/TSP_generados/Aleatorio1621103494_15.opt.tour
NAME: Aleatorio1621103494_15.opt.tour
COMMENT: Optimal solution for Aleatorio1621103494_15 (197.61153491599342)
TYPE: TOUR
DIMENSION: 15
TOUR_SECTION
1 11 10 4 13 15 5 14 2 7 6 3 12 9 8
-1
EOF
